c read Graph
c width = 50
c time = 46 ms
c width = 9
c time = 82 ms
c width = 8
c time = 99 ms
c width = 7
c time = 1083 ms
c width = 7
c time = 4996 ms
s td 56 8 63
b 1 1 2 10
b 2 2 3 10 11
b 3 7 8 17 18
b 4 3 10 11 19
b 5 7 17 18 27
b 6 37 46 47 56
b 7 45 53 54 62
b 8 37 47 56 57
b 9 45 53 61 62
b 10 3 4 11 12 19
b 11 4 5 11 12 13 19
b 12 5 6 11 12 13 14 19
b 13 6 7 11 12 13 14 15 19
b 14 7 11 12 13 14 15 19 20
b 15 7 12 13 14 15 19 20 21
b 16 7 13 14 15 19 20 21 22
b 17 7 14 15 19 20 21 22 23
b 18 7 15 19 20 21 22 23 28
b 19 7 15 20 21 22 23 28 29
b 20 7 15 21 22 23 28 29 30
b 21 7 15 22 23 28 29 30 31
b 22 7 15 23 28 29 30 31 37
b 23 7 15 23 29 30 31 37 38
b 24 7 15 23 30 31 37 38 39
b 25 7 15 23 31 37 38 39 47
b 26 7 15 23 31 37 39 47 57
b 27 7 15 23 31 39 47 48 57
b 28 7 15 23 31 39 40 48 57
b 29 7 15 23 31 32 40 48 57
b 30 7 15 23 24 32 40 48 57
b 31 7 15 16 24 32 40 48 57
b 32 7 16 24 32 40 48 49 57
b 33 7 16 24 32 40 41 49 57
b 34 7 16 24 32 33 41 49 57
b 35 7 16 24 25 33 41 49 57
b 36 7 16 25 33 41 49 57 58
b 37 7 16 25 33 41 49 50 58
b 38 7 16 25 33 41 42 50 58
b 39 7 16 25 33 34 42 50 58
b 40 7 16 25 26 34 42 50 58
b 41 7 16 26 34 36 42 50 58
b 42 26 34 35 36 42 50 58
b 43 34 35 36 42 43 50 58
b 44 35 36 42 43 44 50 58
b 45 36 42 43 44 45 50 58
b 46 42 43 44 45 50 51 58
b 47 43 44 45 50 51 52 58
b 48 44 45 50 51 52 53 58
b 49 45 50 51 52 53 58 61
b 50 50 51 52 53 58 59 61
b 51 51 52 53 58 59 60 61
b 52 7 16 26 27 36
b 53 7 16 17 26 27
b 54 54 62 63
b 55 46 55 56
b 56 8 9 18
1 2
2 4
3 56
3 5
4 10
5 53
6 55
6 8
7 54
7 9
8 26
9 49
10 11
11 12
12 13
13 14
14 15
15 16
16 17
17 18
18 19
19 20
20 21
21 22
22 23
23 24
24 25
25 26
26 27
27 28
28 29
29 30
30 31
31 32
32 33
33 34
34 35
35 36
36 37
37 38
38 39
39 40
40 41
41 52
41 42
42 43
43 44
44 45
45 46
46 47
47 48
48 49
49 50
50 51
52 53
